<?xml version="1.0" encoding="UTF-8"?><osil xmlns="os.optimizationservices.org" xmlns:xsi="http://www.w3.org/2001/XMLSchema-instance" xsi:schemaLocation="os.optimizationservices.org http://www.optimizationservices.org/schemas/2.0/OSiL.xsd"><instanceHeader><name>st_miqp5</name></instanceHeader><instanceData><variables numberOfVariables="7"><var name="i1" type="I" ub="1"/><var name="i2" type="I" ub="1"/><var name="x3" lb="-7.24380468458" ub="22.6826188429"/><var name="x4" lb="-6.0023781122" ub="3.80464419615"/><var name="x5" lb="-.797166188733" ub="11.5189336042"/><var name="x6" lb="-8.75189948987" ub="14.5864991498"/><var name="x7" lb="8.982963196210001e-17" ub="19.4187214575"/></variables><objectives><obj maxOrMin="min" name="defObj_objvar" numberOfObjCoef="5"><coef idx="2">-54.0615511462</coef><coef idx="3">-45.2691026456</coef><coef idx="4">-33.0896119339</coef><coef idx="5">-.875189948987</coef><coef idx="6">-192.710582631</coef></obj></objectives><constraints numberOfConstraints="13"><con name="e1" ub="60"/><con name="e2" ub="60"/><con name="e3" ub="0"/><con name="e4" ub="1"/><con name="e5" ub="0"/><con name="e6" ub="1"/><con name="e7" lb="0"/><con name="e8" lb="0"/><con name="e9" lb="0"/><con name="e10" ub="0"/><con name="e11" ub="0"/><con name="e12" ub="0"/><con name="e13" ub="0"/></constraints><linearConstraintCoefficients numberOfValues="69"><start><el mult="10" incr="5">0</el><el mult="4" incr="6">51</el></start><colIdx><el mult="5" incr="1">2</el><el mult="5" incr="1">2</el><el mult="5" incr="1">2</el><el mult="5" incr="1">2</el><el mult="5" incr="1">2</el><el mult="5" incr="1">2</el><el mult="5" incr="1">2</el><el mult="5" incr="1">2</el><el mult="5" incr="1">2</el><el>0</el><el mult="5" incr="1">2</el><el>0</el><el mult="5" incr="1">2</el><el mult="6" incr="1">1</el><el mult="6" incr="1">1</el></colIdx><value><el>-1.93414531698</el><el>1.80314509442</el><el>2.89695789508</el><el>.729324957489</el><el>3.8837442915</el><el>-1.13150591228</el><el>1.10500971967</el><el>-1.01838569726</el><el>2.62556984696</el><el>4.85468036438</el><el>-5.24800119769e-2</el><el>-.904837825133</el><el>.209520819817</el><el>-.291729982996</el><el>-.222506183367</el><el>5.24800119769e-2</el><el>.904837825133</el><el>-.209520819817</el><el>.291729982996</el><el>.222506183367</el><el>.445391966818</el><el>.301519984248</el><el>.587645368916</el><el>-.145864991498</el><el>-.586607210695</el><el>-.445391966818</el><el>-.301519984248</el><el>-.587645368916</el><el>.145864991498</el><el>.586607210695</el><el>-.328188665272</el><el>.199986646277</el><el>.506106406938</el><el>-.583459965992</el><el>.505695871289</el><el>-.345682002598</el><el>-.101625962101</el><el>.57594668021</el><el>.729324957489</el><el>8.09113394063e-2</el><el>.756087294764</el><el>-.200079270407</el><el>.151379235251</el><el>.145864991498</el><el>.586607210695</el><el>-1</el><el>5.24800119769e-2</el><el>.904837825133</el><el>-.209520819817</el><el>.291729982996</el><el>.222506183367</el><el>1</el><el>-5.24800119769e-2</el><el>-.904837825133</el><el>.209520819817</el><el>-.291729982996</el><el>-.222506183367</el><el>-1</el><el>-.445391966818</el><el>-.301519984248</el><el>-.587645368916</el><el>.145864991498</el><el>.586607210695</el><el>1</el><el>.445391966818</el><el>.301519984248</el><el>.587645368916</el><el>-.145864991498</el><el>-.586607210695</el></value></linearConstraintCoefficients><quadraticCoefficients numberOfQuadraticTerms="2"><qTerm idx="-1" idxOne="5" idxTwo="5" coef="5"/><qTerm idx="-1" idxOne="6" idxTwo="6" coef="52"/></quadraticCoefficients></instanceData></osil>